%%%mzn-stat: initTime=0.003877457
%%%mzn-stat: objective=411
%%%mzn-stat: nodes=501
%%%mzn-stat: restarts=0
%%%mzn-stat: peakDepth=82
%%%mzn-stat: solveTime=0.02249145
%%%mzn-stat: variables=274
%%%mzn-stat: propagators=178
%%%mzn-stat: failures=414
%%%mzn-stat: propagations=47228
%%%mzn-stat: nogoods=414
%%%mzn-stat: AverageConflictSize=2.0434782608695654
%%%mzn-stat: NumUnitNogoodsLearned=410
%%%mzn-stat: AverageLearnedNogoodLength=1.144927536231884
%%%mzn-stat: AverageBacktrackAmount=0
%%%mzn-stat: AverageLbd=1.041062801932367
%%%mzn-stat-end
maxleg = 411;
succ = array1d(1..20,[20, 8, 19, 17, 16, 18, 1, 7, 5, 12, 3, 2, 15, 11, 9, 14, 10, 13, 4, 6]);
% time elapsed: 4.61 s
----------
==========
% time elapsed: 4.61 s
%%%mzn-stat: initTime=0.003877457
%%%mzn-stat: objective=411
%%%mzn-stat: nodes=501
%%%mzn-stat: restarts=0
%%%mzn-stat: peakDepth=82
%%%mzn-stat: solveTime=0.022502577
%%%mzn-stat: variables=274
%%%mzn-stat: propagators=178
%%%mzn-stat: failures=414
%%%mzn-stat: propagations=47228
%%%mzn-stat: nogoods=414
%%%mzn-stat: AverageConflictSize=2.0434782608695654
%%%mzn-stat: NumUnitNogoodsLearned=410
%%%mzn-stat: AverageLearnedNogoodLength=1.144927536231884
%%%mzn-stat: AverageBacktrackAmount=0
%%%mzn-stat: AverageLbd=1.041062801932367
%%%mzn-stat-end
